(set-logic QF_S)
(declare-fun var0 () String)
(assert (str.in.re var0 (re.++ (re.+ (re.* (str.to.re "00"))) (re.++ (re.union (re.* (str.to.re "1")) (re.* (str.to.re "2"))) (re.++ (re.+ (re.* (str.to.re "33"))) (re.++ (re.union (re.+ (str.to.re "444")) (re.+ (str.to.re "5"))) (re.++ (re.union (re.+ (str.to.re "6")) (re.+ (str.to.re "77"))) (re.++ (re.+ (re.+ (str.to.re "8"))) (re.++ (re.* (re.union (str.to.re "9") (str.to.re "aa"))) (re.++ (re.+ (re.+ (str.to.re "b"))) (re.++ (re.* (re.* (str.to.re "c"))) (re.++ (re.union (re.union (str.to.re "ddd") (str.to.re "ee")) (re.union (str.to.re "fff") (str.to.re "gg"))) (re.++ (re.* (re.* (str.to.re "hhh"))) (re.++ (re.+ (re.+ (str.to.re "i"))) (re.++ (re.+ (re.* (str.to.re "j"))) (re.++ (re.+ (re.* (str.to.re "kk"))) (re.++ (re.union (re.+ (str.to.re "ll")) (re.+ (str.to.re "mmm"))) (re.++ (re.* (re.+ (str.to.re "nn"))) (re.++ (re.+ (re.+ (str.to.re "oo"))) (re.++ (re.* (re.union (str.to.re "ppp") (str.to.re "q"))) (re.++ (re.+ (re.+ (str.to.re "r"))) (re.++ (re.+ (re.union (str.to.re "sss") (str.to.re "tt"))) (re.++ (re.+ (re.* (str.to.re "uu"))) (re.++ (re.* (re.union (str.to.re "vvv") (str.to.re "ww"))) (re.++ (re.* (re.+ (str.to.re "x"))) (re.++ (re.+ (re.+ (str.to.re "yyy"))) (re.++ (re.* (re.* (str.to.re "z"))) (re.++ (re.* (re.union (str.to.re "A") (str.to.re "BBB"))) (re.++ (re.+ (re.union (str.to.re "C") (str.to.re "DD"))) (re.++ (re.+ (re.union (str.to.re "EEE") (str.to.re "FFF"))) (re.++ (re.* (re.* (str.to.re "GGG"))) (re.++ (re.+ (re.union (str.to.re "HHH") (str.to.re "II"))) (re.++ (re.* (re.+ (str.to.re "JJ"))) (re.++ (re.* (re.* (str.to.re "KKK"))) (re.++ (re.* (re.union (str.to.re "L") (str.to.re "M"))) (re.++ (re.* (re.union (str.to.re "NN") (str.to.re "OO"))) (re.++ (re.+ (re.union (str.to.re "PPP") (str.to.re "QQQ"))) (re.++ (re.union (re.union (str.to.re "RRR") (str.to.re "S")) (re.union (str.to.re "TTT") (str.to.re "UUU"))) (re.++ (re.+ (re.union (str.to.re "V") (str.to.re "W"))) (re.++ (re.+ (re.* (str.to.re "XX"))) (re.++ (re.+ (re.+ (str.to.re "Y"))) (re.++ (re.union (re.union (str.to.re "ZZ") (str.to.re "!!")) (re.union (str.to.re """""""") (str.to.re "##"))) (re.++ (re.+ (re.* (str.to.re "$"))) (re.++ (re.+ (re.* (str.to.re "%"))) (re.++ (re.* (re.union (str.to.re "&") (str.to.re "''"))) (re.++ (re.* (re.+ (str.to.re "(("))) (re.++ (re.* (re.+ (str.to.re ")))"))) (re.++ (re.* (re.union (str.to.re "***") (str.to.re "+"))) (re.++ (re.+ (re.union (str.to.re ",,,") (str.to.re "--"))) (re.++ (re.+ (re.* (str.to.re "..."))) (re.++ (re.union (re.union (str.to.re "/") (str.to.re "::")) (re.union (str.to.re ";;;") (str.to.re "<<<"))) (re.++ (re.union (re.* (str.to.re "=")) (re.* (str.to.re ">>>"))) (re.++ (re.union (re.+ (str.to.re "??")) (re.+ (str.to.re "@"))) (re.++ (re.union (re.union (str.to.re "[[[") (str.to.re "\\\\")) (re.union (str.to.re "]]]") (str.to.re "^^^"))) (re.++ (re.* (re.* (str.to.re "_"))) (re.++ (re.* (re.union (str.to.re "```") (str.to.re "{{{"))) (re.++ (re.* (re.* (str.to.re "|"))) (re.++ (re.+ (re.* (str.to.re "}}}"))) (re.* (re.union (str.to.re "~~") (str.to.re "00")))))))))))))))))))))))))))))))))))))))))))))))))))))))))))))
(check-sat)